NAME : A-n46-k7.583539.tour
COMMENT : Length = 583539
COMMENT : Found by LKH [Keld Helsgaun] Sun Dec 17 21:18:47 2017
TYPE : TOUR
DIMENSION : 52
TOUR_SECTION
1
39
5
31
3
38
49
24
46
7
15
44
27
14
48
12
13
36
26
45
19
50
10
18
51
37
6
33
4
23
40
8
11
52
20
9
34
16
43
17
25
47
29
22
42
21
28
2
41
35
32
30
-1
EOF
